
Gurobi 9.1.2 (linux64) logging started Thu Aug 10 01:41:13 2023

Changed value of parameter LogFile to max-ls_r=('6', '2').log
   Prev:   Default: 
Changed value of parameter MIPFocus to 1
   Prev: 0  Min: 0  Max: 3  Default: 0
Changed value of parameter Threads to 32
   Prev: 0  Min: 0  Max: 1024  Default: 0
Changed value of parameter TimeLimit to 3600.0
   Prev: inf  Min: 0.0  Max: inf  Default: inf
Warning: variable name "X[('6', '6'),('7', '6')]" has a space
Warning: constraint name "flow-constr-t0-v('6', '3')" has a space
Warning: to let Gurobi read it back, use rlp format
Gurobi Optimizer version 9.1.2 build v9.1.2rc0 (linux64)
Thread count: 16 physical cores, 32 logical processors, using up to 32 threads
Optimize a model with 2931 rows, 2688 columns and 10256 nonzeros
Model fingerprint: 0x275c31c7
Variable types: 256 continuous, 2432 integer (2432 binary)
Coefficient statistics:
  Matrix range     [1e+00, 7e+04]
  Objective range  [2e-01, 2e-01]
  Bounds range     [1e+00, 3e+04]
  RHS range        [1e+00, 7e+04]
Presolve removed 407 rows and 416 columns
Presolve time: 0.04s
Presolved: 2524 rows, 2272 columns, 17147 nonzeros
Variable types: 256 continuous, 2016 integer (2016 binary)
Found heuristic solution: objective 402.0000000

Root relaxation: objective 6.400000e+01, 153 iterations, 0.00 seconds

    Nodes    |    Current Node    |     Objective Bounds      |     Work
 Expl Unexpl |  Obj  Depth IntInf | Incumbent    BestBd   Gap | It/Node Time

     0     0   64.00000    0   16  402.00000   64.00000  84.1%     -    0s
H    0     0                     105.0000000   64.00000  39.0%     -    0s
H    0     0                     104.0000000   64.00000  38.5%     -    0s
H    0     0                     102.7500000   64.00000  37.7%     -    0s
     0     0   64.00000    0   39  102.75000   64.00000  37.7%     -    0s
H    0     0                      87.2500000   64.00000  26.6%     -    0s
     0     0   64.00000    0   45   87.25000   64.00000  26.6%     -    0s
     0     0   64.00000    0   20   87.25000   64.00000  26.6%     -    0s
H    0     0                      85.7500000   64.00000  25.4%     -    0s
H    0     0                      84.3846154   64.00000  24.2%     -    0s
H    0     0                      83.3333333   64.00000  23.2%     -    0s
     0     0   64.00000    0   18   83.33333   64.00000  23.2%     -    0s
H    0     0                      81.8333333   64.00000  21.8%     -    0s
H    0     0                      81.2656250   64.00000  21.2%     -    0s
     0     0   64.00000    0   21   81.26562   64.00000  21.2%     -    0s
H    0     0                      75.8437500   64.00000  15.6%     -    0s
     0     0   64.00000    0   20   75.84375   64.00000  15.6%     -    0s
H    0     0                      72.2500000   64.00000  11.4%     -    1s
     0     0   64.00000    0   22   72.25000   64.00000  11.4%     -    1s
     0     0   64.00000    0   20   72.25000   64.00000  11.4%     -    1s
H    0     0                      72.0000000   64.00000  11.1%     -    1s
     0     2   64.00000    0   20   72.00000   64.00000  11.1%     -    1s
H    1     4                      71.5000000   64.00000  10.5%   143    1s
H   38    64                      70.7142857   64.00000  9.49%  15.1    1s
H   96   128                      69.5000000   64.00000  7.91%   8.7    3s
H   97   128                      69.1250000   64.00000  7.41%   8.6    3s
H  101   128                      69.0625000   64.00000  7.33%   8.3    3s
H  102   128                      68.5000000   64.00000  6.57%   8.3    3s
H  110   128                      68.0000000   64.00000  5.88%   7.9    3s
   159   192   64.00000    9   48   68.00000   64.00000  5.88%   6.1    6s
H  160   192                      67.0000000   64.00000  4.48%   6.1    6s
H 1154  1280                      66.5000000   64.00000  3.76%   8.4    9s
H 1155  1280                      66.0000000   64.00000  3.03%   8.4    9s
  1325  6517   64.00000   41   41   66.00000   64.00000  3.03%   7.8   10s
H 6895  6189                      65.0000000   64.00000  1.54%   4.5   12s
H 6938  5869                      64.5000000   64.00000  0.78%   4.5   14s
H 6938  5576                      64.2500000   64.00000  0.39%   4.5   14s
  6942  5580   64.00000   16   32   64.25000   64.00000  0.39%   6.7   15s
H 6946  5304                      64.1250000   64.00000  0.19%   6.7   15s
H 7034  5114                      64.0000000   64.00000  0.00%   6.9   17s

Cutting planes:
  Learned: 5
  Gomory: 4
  Cover: 32
  Implied bound: 60
  Clique: 44
  MIR: 39
  Flow cover: 61
  GUB cover: 6
  RLT: 7
  Relax-and-lift: 70

Explored 7066 nodes (52901 simplex iterations) in 17.40 seconds
Thread count was 32 (of 32 available processors)

Solution count 10: 64 64.125 64.25 ... 68.5

Optimal solution found (tolerance 1.00e-04)
Best objective 6.400000000000e+01, best bound 6.400000000000e+01, gap 0.0000%
